(set-logic HORN)
(set-info :source |
    Benchmark: C_VC
    Output by Princess (http://www.philipp.ruemmer.org/princess.shtml)
|)
(set-info :status unknown)
(declare-fun inv_main2 () Bool)
(declare-fun inv_main7 (Int Int Int) Bool)
(declare-fun inv_main8 (Int Int Int) Bool)
(assert inv_main2 )
(assert (forall ((var0 Int)) (forall ((var1 Int)) (forall ((var2 Int)) (or (not (and (inv_main8 var2 var0 var1 ) (not (<= 0 (+ var0 (* (- 1) var2 ) ) ) ) ) ) (inv_main7 var2 var0 var1 ) ) ) ) ) )
(assert (forall ((var0 Int)) (forall ((var1 Int)) (forall ((var2 Int)) (or (not (and (inv_main8 var2 var0 var1 ) (<= 0 (+ var0 (* (- 1) var2 ) ) ) ) ) (inv_main8 (+ var2 1 ) var0 (+ var1 2 ) ) ) ) ) ) )
(assert (forall ((var0 Int)) (or (not (and inv_main2 (and (<= 0 (+ (+ 1000 (* (- 1) var0 ) ) (- 1) ) ) (<= 0 (+ var0 1000 ) ) ) ) ) (inv_main8 1 var0 0 ) ) ) )
(assert (forall ((var0 Int)) (forall ((var1 Int)) (forall ((var2 Int)) (not (and (inv_main7 var2 var0 var1 ) (and (not (= (+ var1 (* (- 2) var0 ) ) 0 ) ) (not (= var1 0 ) ) ) ) ) ) ) ) )
(check-sat)
